c *********************************
c * Circuit generated by BenCGen
c *
c * CarrySkipAdder_17_17_17_InOut_G4T
c *
c * Ports with 1 gate(s): 8
c * Ports with 2 gate(s): 96
c * Ports with 4 gate(s): 4
c * Total gates: 108
c *********************************
p cnf 142 358
1 54 0
-1 -54 0
1 -53 0
54 -53 0
-1 -54 53 0
1 18 -57 0
-1 18 57 0
1 -18 57 0
-1 -18 -57 0
57 53 -35 0
-57 53 35 0
57 -53 35 0
-57 -53 -35 0
53 -58 0
57 -58 0
-53 -57 58 0
18 -59 0
1 -59 0
-18 -1 59 0
-58 56 0
-59 56 0
58 59 -56 0
2 19 -61 0
-2 19 61 0
2 -19 61 0
-2 -19 -61 0
61 56 -36 0
-61 56 36 0
61 -56 36 0
-61 -56 -36 0
56 -62 0
61 -62 0
-56 -61 62 0
19 -63 0
2 -63 0
-19 -2 63 0
-62 60 0
-63 60 0
62 63 -60 0
3 20 -65 0
-3 20 65 0
3 -20 65 0
-3 -20 -65 0
65 60 -37 0
-65 60 37 0
65 -60 37 0
-65 -60 -37 0
60 -66 0
65 -66 0
-60 -65 66 0
20 -67 0
3 -67 0
-20 -3 67 0
-66 64 0
-67 64 0
66 67 -64 0
4 21 -68 0
-4 21 68 0
4 -21 68 0
-4 -21 -68 0
68 64 -38 0
-68 64 38 0
68 -64 38 0
-68 -64 -38 0
64 -69 0
68 -69 0
-64 -68 69 0
21 -70 0
4 -70 0
-21 -4 70 0
-69 55 0
-70 55 0
69 70 -55 0
57 -71 0
61 -71 0
65 -71 0
68 -71 0
-57 -61 -65 -68 71 0
70 -72 0
-70 72 0
53 -73 0
71 -73 0
-53 -71 73 0
-73 74 0
-55 74 0
73 55 -74 0
5 22 -77 0
-5 22 77 0
5 -22 77 0
-5 -22 -77 0
77 74 -39 0
-77 74 39 0
77 -74 39 0
-77 -74 -39 0
74 -78 0
77 -78 0
-74 -77 78 0
22 -79 0
5 -79 0
-22 -5 79 0
-78 76 0
-79 76 0
78 79 -76 0
6 23 -81 0
-6 23 81 0
6 -23 81 0
-6 -23 -81 0
81 76 -40 0
-81 76 40 0
81 -76 40 0
-81 -76 -40 0
76 -82 0
81 -82 0
-76 -81 82 0
23 -83 0
6 -83 0
-23 -6 83 0
-82 80 0
-83 80 0
82 83 -80 0
7 24 -85 0
-7 24 85 0
7 -24 85 0
-7 -24 -85 0
85 80 -41 0
-85 80 41 0
85 -80 41 0
-85 -80 -41 0
80 -86 0
85 -86 0
-80 -85 86 0
24 -87 0
7 -87 0
-24 -7 87 0
-86 84 0
-87 84 0
86 87 -84 0
8 25 -88 0
-8 25 88 0
8 -25 88 0
-8 -25 -88 0
88 84 -42 0
-88 84 42 0
88 -84 42 0
-88 -84 -42 0
84 -89 0
88 -89 0
-84 -88 89 0
25 -90 0
8 -90 0
-25 -8 90 0
-89 75 0
-90 75 0
89 90 -75 0
77 -91 0
81 -91 0
85 -91 0
88 -91 0
-77 -81 -85 -88 91 0
90 -92 0
-90 92 0
74 -93 0
91 -93 0
-74 -91 93 0
-93 94 0
-75 94 0
93 75 -94 0
9 26 -97 0
-9 26 97 0
9 -26 97 0
-9 -26 -97 0
97 94 -43 0
-97 94 43 0
97 -94 43 0
-97 -94 -43 0
94 -98 0
97 -98 0
-94 -97 98 0
26 -99 0
9 -99 0
-26 -9 99 0
-98 96 0
-99 96 0
98 99 -96 0
10 27 -101 0
-10 27 101 0
10 -27 101 0
-10 -27 -101 0
101 96 -44 0
-101 96 44 0
101 -96 44 0
-101 -96 -44 0
96 -102 0
101 -102 0
-96 -101 102 0
27 -103 0
10 -103 0
-27 -10 103 0
-102 100 0
-103 100 0
102 103 -100 0
11 28 -105 0
-11 28 105 0
11 -28 105 0
-11 -28 -105 0
105 100 -45 0
-105 100 45 0
105 -100 45 0
-105 -100 -45 0
100 -106 0
105 -106 0
-100 -105 106 0
28 -107 0
11 -107 0
-28 -11 107 0
-106 104 0
-107 104 0
106 107 -104 0
12 29 -108 0
-12 29 108 0
12 -29 108 0
-12 -29 -108 0
108 104 -46 0
-108 104 46 0
108 -104 46 0
-108 -104 -46 0
104 -109 0
108 -109 0
-104 -108 109 0
29 -110 0
12 -110 0
-29 -12 110 0
-109 95 0
-110 95 0
109 110 -95 0
97 -111 0
101 -111 0
105 -111 0
108 -111 0
-97 -101 -105 -108 111 0
110 -112 0
-110 112 0
94 -113 0
111 -113 0
-94 -111 113 0
-113 114 0
-95 114 0
113 95 -114 0
13 30 -117 0
-13 30 117 0
13 -30 117 0
-13 -30 -117 0
117 114 -47 0
-117 114 47 0
117 -114 47 0
-117 -114 -47 0
114 -118 0
117 -118 0
-114 -117 118 0
30 -119 0
13 -119 0
-30 -13 119 0
-118 116 0
-119 116 0
118 119 -116 0
14 31 -121 0
-14 31 121 0
14 -31 121 0
-14 -31 -121 0
121 116 -48 0
-121 116 48 0
121 -116 48 0
-121 -116 -48 0
116 -122 0
121 -122 0
-116 -121 122 0
31 -123 0
14 -123 0
-31 -14 123 0
-122 120 0
-123 120 0
122 123 -120 0
15 32 -125 0
-15 32 125 0
15 -32 125 0
-15 -32 -125 0
125 120 -49 0
-125 120 49 0
125 -120 49 0
-125 -120 -49 0
120 -126 0
125 -126 0
-120 -125 126 0
32 -127 0
15 -127 0
-32 -15 127 0
-126 124 0
-127 124 0
126 127 -124 0
16 33 -128 0
-16 33 128 0
16 -33 128 0
-16 -33 -128 0
128 124 -50 0
-128 124 50 0
128 -124 50 0
-128 -124 -50 0
124 -129 0
128 -129 0
-124 -128 129 0
33 -130 0
16 -130 0
-33 -16 130 0
-129 115 0
-130 115 0
129 130 -115 0
117 -131 0
121 -131 0
125 -131 0
128 -131 0
-117 -121 -125 -128 131 0
130 -132 0
-130 132 0
114 -133 0
131 -133 0
-114 -131 133 0
-133 134 0
-115 134 0
133 115 -134 0
17 34 -136 0
-17 34 136 0
17 -34 136 0
-17 -34 -136 0
136 134 -51 0
-136 134 51 0
136 -134 51 0
-136 -134 -51 0
134 -137 0
136 -137 0
-134 -136 137 0
34 -138 0
17 -138 0
-34 -17 138 0
-137 135 0
-138 135 0
137 138 -135 0
136 -139 0
-136 139 0
138 -140 0
-138 140 0
134 -141 0
139 -141 0
-134 -139 141 0
-141 142 0
-135 142 0
141 135 -142 0
142 -52 0
-142 52 0
